
Gurobi 11.0.3 (linux64) logging started Tue Apr 14 04:47:46 2026

Set parameter LogFile to value "tree/results/wine/wine_depth-3_run-2/Full MIP/LogFile_FullModel.txt"
Gurobi Optimizer version 11.0.3 build v11.0.3rc0 (linux64 - "CentOS Linux 7 (Core)")

CPU model: Intel(R) Xeon(R) Platinum 8260 CPU @ 2.40GHz, instruction set [SSE2|AVX|AVX2|AVX512]
Thread count: 96 physical cores, 192 logical processors, using up to 32 threads

Optimize a model with 11085 rows, 7777 columns and 149401 nonzeros
Model fingerprint: 0x716d437a
Model has 1064 general constraints
Variable types: 4470 continuous, 3307 integer (3307 binary)
Coefficient statistics:
  Matrix range     [2e-03, 1e+04]
  Objective range  [8e-03, 1e+04]
  Bounds range     [1e+00, 5e+02]
  RHS range        [1e-04, 9e+02]

User MIP start produced solution with objective 0.969925 (0.05s)
Loaded user MIP start with objective 0.969925

Presolve added 1056 rows and 3191 columns
Presolve time: 0.21s
Presolved: 12141 rows, 10968 columns, 155758 nonzeros
Presolved model has 3192 SOS constraint(s)
Variable types: 4469 continuous, 6499 integer (6499 binary)
Root relaxation presolved: 12133 rows, 10960 columns, 155758 nonzeros

Deterministic concurrent LP optimizer: primal and dual simplex
Showing primal log only...

Concurrent spin time: 0.01s

Solved with primal simplex

Root relaxation: objective 1.000000e+00, 2607 iterations, 1.41 seconds (1.08 work units)

    Nodes    |    Current Node    |     Objective Bounds      |     Work
 Expl Unexpl |  Obj  Depth IntInf | Incumbent    BestBd   Gap | It/Node Time

     0     0    1.00000    0  375    0.96992    1.00000  3.10%     -    4s
     0     2    1.00000    0  375    0.96992    1.00000  3.10%     -   10s
    31    64    1.00000    5  377    0.96992    1.00000  3.10%   3.3   17s
    63    96    1.00000    6  375    0.96992    1.00000  3.10%   3.9   36s
    95   128    1.00000    7  375    0.96992    1.00000  3.10%   3.3   47s
H   96   128                       0.9774436    1.00000  2.31%   3.2   47s
H  101   128                       0.9924812    1.00000  0.76%   3.2   47s
   127   160    1.00000    8  379    0.99248    1.00000  0.76%  18.2   62s
H  159   192                       1.0000000    1.00000  0.00%  67.8   91s

Explored 191 nodes (30839 simplex iterations) in 91.52 seconds (79.53 work units)
Thread count was 32 (of 192 available processors)

Solution count 4: 1 0.992481 0.977444 0.969925 

Optimal solution found (tolerance 1.00e-04)
Best objective 1.000000000000e+00, best bound 1.000000000000e+00, gap 0.0000%

User-callback calls 37293, time in user-callback 0.44 sec
